NAME : kroA100-R-3-1-a.29264.tour
COMMENT : Length = 29264
COMMENT : Found by LKH-3 [Keld Helsgaun] Tue Jul 30 13:14:56 2024
TYPE : TOUR
DIMENSION : 100
TOUR_SECTION
1
92
8
80
26
65
66
22
94
88
53
19
75
6
49
90
10
84
72
21
15
11
47
93
58
67
54
40
64
61
87
77
60
62
35
86
27
20
12
55
83
34
43
3
14
100
52
5
37
33
76
95
13
82
2
44
50
73
68
85
39
30
96
78
48
71
41
46
29
7
9
57
51
25
81
69
28
23
98
91
45
32
17
74
59
36
99
38
24
18
79
16
70
4
97
56
31
89
42
63
-1
EOF
